NAME : swiss42-R-5-1-a.1812.tour
COMMENT : Length = 1812
COMMENT : Found by LKH-3 [Keld Helsgaun] Tue Jul 30 13:14:22 2024
TYPE : TOUR
DIMENSION : 42
TOUR_SECTION
1
8
38
16
17
15
20
19
5
4
31
30
40
25
41
42
11
13
27
7
3
28
33
36
37
18
32
21
34
35
39
23
22
24
10
9
26
12
14
6
2
29
-1
EOF
